Traveling Salesman Problem/TSP_generados/Aleatorio1620392795_16.tsp
NAME: Aleatorio1620392795_16.tsp
COMMENT: Randomly generated scenario
TYPE: TSP
DIMENSION: 16
EDGE_WEIGHT_TYPE: ATT
NODE_COORD_SECTION
1 28.3 25.52
2 13.04 7.5
3 9.14 32.45
4 17.16 37.11
5 45.01 49.37
6 43.25 24.53
7 30.32 38.55
8 40.8 25.22
9 40.19 1.22
10 35.15 35.93
11 35.54 29.0
12 44.27 35.06
13 42.06 31.81
14 20.77 14.38
15 6.02 30.28
16 45.05 38.72
