Traveling Salesman Problem/TSP_generados/Aleatorio1620392795_16.opt.tour
NAME: Aleatorio1620392795_16.opt.tour
COMMENT: Optimal solution for Aleatorio1620392795_16 (175.93032681760587)
TYPE: TOUR
DIMENSION: 16
TOUR_SECTION
1 11 8 6 13 12 16 5 10 7 4 3 15 2 14 9
-1
EOF
